Minimize
	value: tt

Subject to
tt + 1000 s_1_1 > 0.0
tt - t_1_1 - 1000.940253 s_1_1  + 0.470127 s_1_8  + 0.470127 s_1_7  > -980.903678
tt + 1000 s_2_1 > 0.0
tt - t_2_1 - 1000.920812 s_2_1  + 0.460406 s_2_8  + 0.460406 s_2_7  > -961.493950
tt + 1000 s_1_2 > 0.0
tt - t_1_2 - 1000.470127 s_1_2  + 0.470127 s_1_7  > -980.977789
tt + 1000 s_2_2 > 0.0
tt - t_2_2 - 1000.460406 s_2_2  + 0.460406 s_2_7  > -961.593561
tt + 1000 s_1_3 > 0.0
tt - t_1_3 - 1000.940253 s_1_3  + 0.470127 s_1_8  + 0.470127 s_1_7  > -998.060800
tt + 1000 s_2_3 > 0.0
tt - t_2_3 - 1000.920812 s_2_3  + 0.460406 s_2_8  + 0.460406 s_2_7  > -994.841822
tt + 1000 s_1_4 > 0.0
tt - t_1_4 - 1000.470127 s_1_4  + 0.470127 s_1_7  > -995.848100
tt + 1000 s_2_4 > 0.0
tt - t_2_4 - 1000.460406 s_2_4  + 0.460406 s_2_7  > -992.020178
tt + 1000 s_1_5 > 0.0
tt - t_1_5 - 1000.470127 s_1_5  + 0.470127 s_1_8  > -991.036733
tt + 1000 s_2_5 > 0.0
tt - t_2_5 - 1000.460406 s_2_5  + 0.460406 s_2_8  > -980.922633
tt + 1000 s_1_6 > 0.0
tt - t_1_6 - 1002.820760 s_1_6  + 0.470127 s_1_5  + 0.470127 s_1_1  + 0.470127 s_1_7  + 0.470127 s_1_3  + 0.470127 s_1_4  + 0.470127 s_1_2  > -998.236200
tt + 1000 s_2_6 > 0.0
tt - t_2_6 - 1002.762435 s_2_6  + 0.460406 s_2_5  + 0.460406 s_2_1  + 0.460406 s_2_7  + 0.460406 s_2_3  + 0.460406 s_2_4  + 0.460406 s_2_2  > -996.369700
tt + 1000 s_1_7 > 0.0
tt - t_1_7 - 1000.000000 s_1_7  > -972.100000
tt + 1000 s_2_7 > 0.0
tt - t_2_7 - 1000.000000 s_2_7  > -968.133056
tt + 1000 s_1_8 > 0.0
tt - t_1_8 - 1000.000000 s_1_8  > -962.445200
tt + 1000 s_2_8 > 0.0
tt - t_2_8 - 1000.000000 s_2_8  > -959.572800
s_1_1 + s_2_1 = 1
s_1_2 + s_2_2 = 1
s_1_3 + s_2_3 = 1
s_1_4 + s_2_4 = 1
s_1_5 + s_2_5 = 1
s_1_6 + s_2_6 = 1
s_1_7 + s_2_7 = 1
s_1_8 + s_2_8 = 1
s_1_1 + s_1_2 + 1000 r_1_1_2 >= 2
- s_1_1 - s_1_2 - 1000 r_1_1_2 >= -1001
t_1_1 - t_1_2 - 1000.000000 u_1_1_2 - 0.470127 s_1_2  + 0.470127 s_1_7  + 2000.000000 r_1_1_2 > -980.977789
s_2_1 + s_2_2 + 1000 r_2_1_2 >= 2
- s_2_1 - s_2_2 - 1000 r_2_1_2 >= -1001
t_2_1 - t_2_2 - 1000.000000 u_2_1_2 - 0.460406 s_2_2  + 0.460406 s_2_7  + 2000.000000 r_2_1_2 > -961.593561
s_1_1 + s_1_3 + 1000 r_1_1_3 >= 2
- s_1_1 - s_1_3 - 1000 r_1_1_3 >= -1001
t_1_1 - t_1_3 - 1000.000000 u_1_1_3 - 0.940253 s_1_3  + 0.470127 s_1_8  + 0.470127 s_1_7  + 2000.000000 r_1_1_3 > -998.060800
s_2_1 + s_2_3 + 1000 r_2_1_3 >= 2
- s_2_1 - s_2_3 - 1000 r_2_1_3 >= -1001
t_2_1 - t_2_3 - 1000.000000 u_2_1_3 - 0.920812 s_2_3  + 0.460406 s_2_8  + 0.460406 s_2_7  + 2000.000000 r_2_1_3 > -994.841822
s_1_1 + s_1_4 + 1000 r_1_1_4 >= 2
- s_1_1 - s_1_4 - 1000 r_1_1_4 >= -1001
t_1_1 - t_1_4 - 1000.000000 u_1_1_4 - 0.470127 s_1_4  + 0.470127 s_1_7  + 2000.000000 r_1_1_4 > -995.848100
s_2_1 + s_2_4 + 1000 r_2_1_4 >= 2
- s_2_1 - s_2_4 - 1000 r_2_1_4 >= -1001
t_2_1 - t_2_4 - 1000.000000 u_2_1_4 - 0.460406 s_2_4  + 0.460406 s_2_7  + 2000.000000 r_2_1_4 > -992.020178
s_1_1 + s_1_5 + 1000 r_1_1_5 >= 2
- s_1_1 - s_1_5 - 1000 r_1_1_5 >= -1001
t_1_1 - t_1_5 - 1000.000000 u_1_1_5 - 0.470127 s_1_5  + 0.470127 s_1_8  + 2000.000000 r_1_1_5 > -991.036733
s_2_1 + s_2_5 + 1000 r_2_1_5 >= 2
- s_2_1 - s_2_5 - 1000 r_2_1_5 >= -1001
t_2_1 - t_2_5 - 1000.000000 u_2_1_5 - 0.460406 s_2_5  + 0.460406 s_2_8  + 2000.000000 r_2_1_5 > -980.922633
t_1_6 - t_1_1 - 1000.940253 s_1_1  + 0.470127 s_1_8  + 0.470127 s_1_7  > -980.903678
t_1_6 - t_2_1 - 1000.920812 s_2_1  + 0.460406 s_2_8  + 0.460406 s_2_7  > -961.493950
t_2_6 - t_1_1 - 1000.940253 s_1_1  + 0.470127 s_1_8  + 0.470127 s_1_7  > -980.903678
t_2_6 - t_2_1 - 1000.920812 s_2_1  + 0.460406 s_2_8  + 0.460406 s_2_7  > -961.493950
t_1_1 - t_1_7 - 1000.000000 s_1_7  > -972.100000
t_1_1 - t_2_7 - 1000.000000 s_2_7  > -968.133056
t_2_1 - t_1_7 - 1000.000000 s_1_7  > -972.100000
t_2_1 - t_2_7 - 1000.000000 s_2_7  > -968.133056
t_1_1 - t_1_8 - 1000.000000 s_1_8  > -962.445200
t_1_1 - t_2_8 - 1000.000000 s_2_8  > -959.572800
t_2_1 - t_1_8 - 1000.000000 s_1_8  > -962.445200
t_2_1 - t_2_8 - 1000.000000 s_2_8  > -959.572800
s_1_2 + s_1_1 + 1000 r_1_1_2 >= 2
- s_1_2 - s_1_1 - 1000 r_1_1_2 >= -1001
t_1_2 - t_1_1 + 1000.000000 u_1_1_2 - 0.940253 s_1_1  + 0.470127 s_1_8  + 0.470127 s_1_7  + 2000.000000 r_1_1_2 > 19.096322
s_2_2 + s_2_1 + 1000 r_2_1_2 >= 2
- s_2_2 - s_2_1 - 1000 r_2_1_2 >= -1001
t_2_2 - t_2_1 + 1000.000000 u_2_1_2 - 0.920812 s_2_1  + 0.460406 s_2_8  + 0.460406 s_2_7  + 2000.000000 r_2_1_2 > 38.506050
s_1_2 + s_1_3 + 1000 r_1_2_3 >= 2
- s_1_2 - s_1_3 - 1000 r_1_2_3 >= -1001
t_1_2 - t_1_3 - 1000.000000 u_1_2_3 - 0.940253 s_1_3  + 0.470127 s_1_8  + 0.470127 s_1_7  + 2000.000000 r_1_2_3 > -998.060800
s_2_2 + s_2_3 + 1000 r_2_2_3 >= 2
- s_2_2 - s_2_3 - 1000 r_2_2_3 >= -1001
t_2_2 - t_2_3 - 1000.000000 u_2_2_3 - 0.920812 s_2_3  + 0.460406 s_2_8  + 0.460406 s_2_7  + 2000.000000 r_2_2_3 > -994.841822
s_1_2 + s_1_4 + 1000 r_1_2_4 >= 2
- s_1_2 - s_1_4 - 1000 r_1_2_4 >= -1001
t_1_2 - t_1_4 - 1000.000000 u_1_2_4 - 0.470127 s_1_4  + 0.470127 s_1_7  + 2000.000000 r_1_2_4 > -995.848100
s_2_2 + s_2_4 + 1000 r_2_2_4 >= 2
- s_2_2 - s_2_4 - 1000 r_2_2_4 >= -1001
t_2_2 - t_2_4 - 1000.000000 u_2_2_4 - 0.460406 s_2_4  + 0.460406 s_2_7  + 2000.000000 r_2_2_4 > -992.020178
s_1_2 + s_1_5 + 1000 r_1_2_5 >= 2
- s_1_2 - s_1_5 - 1000 r_1_2_5 >= -1001
t_1_2 - t_1_5 - 1000.000000 u_1_2_5 - 0.470127 s_1_5  + 0.470127 s_1_8  + 2000.000000 r_1_2_5 > -991.036733
s_2_2 + s_2_5 + 1000 r_2_2_5 >= 2
- s_2_2 - s_2_5 - 1000 r_2_2_5 >= -1001
t_2_2 - t_2_5 - 1000.000000 u_2_2_5 - 0.460406 s_2_5  + 0.460406 s_2_8  + 2000.000000 r_2_2_5 > -980.922633
t_1_6 - t_1_2 - 1000.470127 s_1_2  + 0.470127 s_1_7  > -980.977789
t_1_6 - t_2_2 - 1000.460406 s_2_2  + 0.460406 s_2_7  > -961.593561
t_2_6 - t_1_2 - 1000.470127 s_1_2  + 0.470127 s_1_7  > -980.977789
t_2_6 - t_2_2 - 1000.460406 s_2_2  + 0.460406 s_2_7  > -961.593561
t_1_2 - t_1_7 - 1000.000000 s_1_7  > -972.100000
t_1_2 - t_2_7 - 1000.000000 s_2_7  > -968.133056
t_2_2 - t_1_7 - 1000.000000 s_1_7  > -972.100000
t_2_2 - t_2_7 - 1000.000000 s_2_7  > -968.133056
s_1_2 + s_1_8 + 1000 r_1_2_8 >= 2
- s_1_2 - s_1_8 - 1000 r_1_2_8 >= -1001
t_1_2 - t_1_8 - 1000.000000 u_1_2_8 - 0.000000 s_1_8  + 2000.000000 r_1_2_8 > -962.445200
s_2_2 + s_2_8 + 1000 r_2_2_8 >= 2
- s_2_2 - s_2_8 - 1000 r_2_2_8 >= -1001
t_2_2 - t_2_8 - 1000.000000 u_2_2_8 - 0.000000 s_2_8  + 2000.000000 r_2_2_8 > -959.572800
s_1_3 + s_1_1 + 1000 r_1_1_3 >= 2
- s_1_3 - s_1_1 - 1000 r_1_1_3 >= -1001
t_1_3 - t_1_1 + 1000.000000 u_1_1_3 - 0.940253 s_1_1  + 0.470127 s_1_8  + 0.470127 s_1_7  + 2000.000000 r_1_1_3 > 19.096322
s_2_3 + s_2_1 + 1000 r_2_1_3 >= 2
- s_2_3 - s_2_1 - 1000 r_2_1_3 >= -1001
t_2_3 - t_2_1 + 1000.000000 u_2_1_3 - 0.920812 s_2_1  + 0.460406 s_2_8  + 0.460406 s_2_7  + 2000.000000 r_2_1_3 > 38.506050
s_1_3 + s_1_2 + 1000 r_1_2_3 >= 2
- s_1_3 - s_1_2 - 1000 r_1_2_3 >= -1001
t_1_3 - t_1_2 + 1000.000000 u_1_2_3 - 0.470127 s_1_2  + 0.470127 s_1_7  + 2000.000000 r_1_2_3 > 19.022211
s_2_3 + s_2_2 + 1000 r_2_2_3 >= 2
- s_2_3 - s_2_2 - 1000 r_2_2_3 >= -1001
t_2_3 - t_2_2 + 1000.000000 u_2_2_3 - 0.460406 s_2_2  + 0.460406 s_2_7  + 2000.000000 r_2_2_3 > 38.406439
s_1_3 + s_1_4 + 1000 r_1_3_4 >= 2
- s_1_3 - s_1_4 - 1000 r_1_3_4 >= -1001
t_1_3 - t_1_4 - 1000.000000 u_1_3_4 - 0.470127 s_1_4  + 0.470127 s_1_7  + 2000.000000 r_1_3_4 > -995.848100
s_2_3 + s_2_4 + 1000 r_2_3_4 >= 2
- s_2_3 - s_2_4 - 1000 r_2_3_4 >= -1001
t_2_3 - t_2_4 - 1000.000000 u_2_3_4 - 0.460406 s_2_4  + 0.460406 s_2_7  + 2000.000000 r_2_3_4 > -992.020178
s_1_3 + s_1_5 + 1000 r_1_3_5 >= 2
- s_1_3 - s_1_5 - 1000 r_1_3_5 >= -1001
t_1_3 - t_1_5 - 1000.000000 u_1_3_5 - 0.470127 s_1_5  + 0.470127 s_1_8  + 2000.000000 r_1_3_5 > -991.036733
s_2_3 + s_2_5 + 1000 r_2_3_5 >= 2
- s_2_3 - s_2_5 - 1000 r_2_3_5 >= -1001
t_2_3 - t_2_5 - 1000.000000 u_2_3_5 - 0.460406 s_2_5  + 0.460406 s_2_8  + 2000.000000 r_2_3_5 > -980.922633
t_1_6 - t_1_3 - 1000.940253 s_1_3  + 0.470127 s_1_8  + 0.470127 s_1_7  > -998.060800
t_1_6 - t_2_3 - 1000.920812 s_2_3  + 0.460406 s_2_8  + 0.460406 s_2_7  > -994.841822
t_2_6 - t_1_3 - 1000.940253 s_1_3  + 0.470127 s_1_8  + 0.470127 s_1_7  > -998.060800
t_2_6 - t_2_3 - 1000.920812 s_2_3  + 0.460406 s_2_8  + 0.460406 s_2_7  > -994.841822
t_1_3 - t_1_7 - 1000.000000 s_1_7  > -972.100000
t_1_3 - t_2_7 - 1000.000000 s_2_7  > -968.133056
t_2_3 - t_1_7 - 1000.000000 s_1_7  > -972.100000
t_2_3 - t_2_7 - 1000.000000 s_2_7  > -968.133056
t_1_3 - t_1_8 - 1000.000000 s_1_8  > -962.445200
t_1_3 - t_2_8 - 1000.000000 s_2_8  > -959.572800
t_2_3 - t_1_8 - 1000.000000 s_1_8  > -962.445200
t_2_3 - t_2_8 - 1000.000000 s_2_8  > -959.572800
s_1_4 + s_1_1 + 1000 r_1_1_4 >= 2
- s_1_4 - s_1_1 - 1000 r_1_1_4 >= -1001
t_1_4 - t_1_1 + 1000.000000 u_1_1_4 - 0.940253 s_1_1  + 0.470127 s_1_8  + 0.470127 s_1_7  + 2000.000000 r_1_1_4 > 19.096322
s_2_4 + s_2_1 + 1000 r_2_1_4 >= 2
- s_2_4 - s_2_1 - 1000 r_2_1_4 >= -1001
t_2_4 - t_2_1 + 1000.000000 u_2_1_4 - 0.920812 s_2_1  + 0.460406 s_2_8  + 0.460406 s_2_7  + 2000.000000 r_2_1_4 > 38.506050
s_1_4 + s_1_2 + 1000 r_1_2_4 >= 2
- s_1_4 - s_1_2 - 1000 r_1_2_4 >= -1001
t_1_4 - t_1_2 + 1000.000000 u_1_2_4 - 0.470127 s_1_2  + 0.470127 s_1_7  + 2000.000000 r_1_2_4 > 19.022211
s_2_4 + s_2_2 + 1000 r_2_2_4 >= 2
- s_2_4 - s_2_2 - 1000 r_2_2_4 >= -1001
t_2_4 - t_2_2 + 1000.000000 u_2_2_4 - 0.460406 s_2_2  + 0.460406 s_2_7  + 2000.000000 r_2_2_4 > 38.406439
s_1_4 + s_1_3 + 1000 r_1_3_4 >= 2
- s_1_4 - s_1_3 - 1000 r_1_3_4 >= -1001
t_1_4 - t_1_3 + 1000.000000 u_1_3_4 - 0.940253 s_1_3  + 0.470127 s_1_8  + 0.470127 s_1_7  + 2000.000000 r_1_3_4 > 1.939200
s_2_4 + s_2_3 + 1000 r_2_3_4 >= 2
- s_2_4 - s_2_3 - 1000 r_2_3_4 >= -1001
t_2_4 - t_2_3 + 1000.000000 u_2_3_4 - 0.920812 s_2_3  + 0.460406 s_2_8  + 0.460406 s_2_7  + 2000.000000 r_2_3_4 > 5.158178
s_1_4 + s_1_5 + 1000 r_1_4_5 >= 2
- s_1_4 - s_1_5 - 1000 r_1_4_5 >= -1001
t_1_4 - t_1_5 - 1000.000000 u_1_4_5 - 0.470127 s_1_5  + 0.470127 s_1_8  + 2000.000000 r_1_4_5 > -991.036733
s_2_4 + s_2_5 + 1000 r_2_4_5 >= 2
- s_2_4 - s_2_5 - 1000 r_2_4_5 >= -1001
t_2_4 - t_2_5 - 1000.000000 u_2_4_5 - 0.460406 s_2_5  + 0.460406 s_2_8  + 2000.000000 r_2_4_5 > -980.922633
t_1_6 - t_1_4 - 1000.470127 s_1_4  + 0.470127 s_1_7  > -995.848100
t_1_6 - t_2_4 - 1000.460406 s_2_4  + 0.460406 s_2_7  > -992.020178
t_2_6 - t_1_4 - 1000.470127 s_1_4  + 0.470127 s_1_7  > -995.848100
t_2_6 - t_2_4 - 1000.460406 s_2_4  + 0.460406 s_2_7  > -992.020178
t_1_4 - t_1_7 - 1000.000000 s_1_7  > -972.100000
t_1_4 - t_2_7 - 1000.000000 s_2_7  > -968.133056
t_2_4 - t_1_7 - 1000.000000 s_1_7  > -972.100000
t_2_4 - t_2_7 - 1000.000000 s_2_7  > -968.133056
s_1_4 + s_1_8 + 1000 r_1_4_8 >= 2
- s_1_4 - s_1_8 - 1000 r_1_4_8 >= -1001
t_1_4 - t_1_8 - 1000.000000 u_1_4_8 - 0.000000 s_1_8  + 2000.000000 r_1_4_8 > -962.445200
s_2_4 + s_2_8 + 1000 r_2_4_8 >= 2
- s_2_4 - s_2_8 - 1000 r_2_4_8 >= -1001
t_2_4 - t_2_8 - 1000.000000 u_2_4_8 - 0.000000 s_2_8  + 2000.000000 r_2_4_8 > -959.572800
s_1_5 + s_1_1 + 1000 r_1_1_5 >= 2
- s_1_5 - s_1_1 - 1000 r_1_1_5 >= -1001
t_1_5 - t_1_1 + 1000.000000 u_1_1_5 - 0.940253 s_1_1  + 0.470127 s_1_8  + 0.470127 s_1_7  + 2000.000000 r_1_1_5 > 19.096322
s_2_5 + s_2_1 + 1000 r_2_1_5 >= 2
- s_2_5 - s_2_1 - 1000 r_2_1_5 >= -1001
t_2_5 - t_2_1 + 1000.000000 u_2_1_5 - 0.920812 s_2_1  + 0.460406 s_2_8  + 0.460406 s_2_7  + 2000.000000 r_2_1_5 > 38.506050
s_1_5 + s_1_2 + 1000 r_1_2_5 >= 2
- s_1_5 - s_1_2 - 1000 r_1_2_5 >= -1001
t_1_5 - t_1_2 + 1000.000000 u_1_2_5 - 0.470127 s_1_2  + 0.470127 s_1_7  + 2000.000000 r_1_2_5 > 19.022211
s_2_5 + s_2_2 + 1000 r_2_2_5 >= 2
- s_2_5 - s_2_2 - 1000 r_2_2_5 >= -1001
t_2_5 - t_2_2 + 1000.000000 u_2_2_5 - 0.460406 s_2_2  + 0.460406 s_2_7  + 2000.000000 r_2_2_5 > 38.406439
s_1_5 + s_1_3 + 1000 r_1_3_5 >= 2
- s_1_5 - s_1_3 - 1000 r_1_3_5 >= -1001
t_1_5 - t_1_3 + 1000.000000 u_1_3_5 - 0.940253 s_1_3  + 0.470127 s_1_8  + 0.470127 s_1_7  + 2000.000000 r_1_3_5 > 1.939200
s_2_5 + s_2_3 + 1000 r_2_3_5 >= 2
- s_2_5 - s_2_3 - 1000 r_2_3_5 >= -1001
t_2_5 - t_2_3 + 1000.000000 u_2_3_5 - 0.920812 s_2_3  + 0.460406 s_2_8  + 0.460406 s_2_7  + 2000.000000 r_2_3_5 > 5.158178
s_1_5 + s_1_4 + 1000 r_1_4_5 >= 2
- s_1_5 - s_1_4 - 1000 r_1_4_5 >= -1001
t_1_5 - t_1_4 + 1000.000000 u_1_4_5 - 0.470127 s_1_4  + 0.470127 s_1_7  + 2000.000000 r_1_4_5 > 4.151900
s_2_5 + s_2_4 + 1000 r_2_4_5 >= 2
- s_2_5 - s_2_4 - 1000 r_2_4_5 >= -1001
t_2_5 - t_2_4 + 1000.000000 u_2_4_5 - 0.460406 s_2_4  + 0.460406 s_2_7  + 2000.000000 r_2_4_5 > 7.979822
t_1_6 - t_1_5 - 1000.470127 s_1_5  + 0.470127 s_1_8  > -991.036733
t_1_6 - t_2_5 - 1000.460406 s_2_5  + 0.460406 s_2_8  > -980.922633
t_2_6 - t_1_5 - 1000.470127 s_1_5  + 0.470127 s_1_8  > -991.036733
t_2_6 - t_2_5 - 1000.460406 s_2_5  + 0.460406 s_2_8  > -980.922633
s_1_5 + s_1_7 + 1000 r_1_5_7 >= 2
- s_1_5 - s_1_7 - 1000 r_1_5_7 >= -1001
t_1_5 - t_1_7 - 1000.000000 u_1_5_7 - 0.000000 s_1_7  + 2000.000000 r_1_5_7 > -972.100000
s_2_5 + s_2_7 + 1000 r_2_5_7 >= 2
- s_2_5 - s_2_7 - 1000 r_2_5_7 >= -1001
t_2_5 - t_2_7 - 1000.000000 u_2_5_7 - 0.000000 s_2_7  + 2000.000000 r_2_5_7 > -968.133056
t_1_5 - t_1_8 - 1000.000000 s_1_8  > -962.445200
t_1_5 - t_2_8 - 1000.000000 s_2_8  > -959.572800
t_2_5 - t_1_8 - 1000.000000 s_1_8  > -962.445200
t_2_5 - t_2_8 - 1000.000000 s_2_8  > -959.572800
t_1_6 - t_1_7 - 1000.000000 s_1_7  > -972.100000
t_1_6 - t_2_7 - 1000.000000 s_2_7  > -968.133056
t_2_6 - t_1_7 - 1000.000000 s_1_7  > -972.100000
t_2_6 - t_2_7 - 1000.000000 s_2_7  > -968.133056
s_1_7 + s_1_5 + 1000 r_1_5_7 >= 2
- s_1_7 - s_1_5 - 1000 r_1_5_7 >= -1001
t_1_7 - t_1_5 + 1000.000000 u_1_5_7 - 0.470127 s_1_5  + 0.470127 s_1_8  + 2000.000000 r_1_5_7 > 8.963267
s_2_7 + s_2_5 + 1000 r_2_5_7 >= 2
- s_2_7 - s_2_5 - 1000 r_2_5_7 >= -1001
t_2_7 - t_2_5 + 1000.000000 u_2_5_7 - 0.460406 s_2_5  + 0.460406 s_2_8  + 2000.000000 r_2_5_7 > 19.077367
s_1_7 + s_1_8 + 1000 r_1_7_8 >= 2
- s_1_7 - s_1_8 - 1000 r_1_7_8 >= -1001
t_1_7 - t_1_8 - 1000.000000 u_1_7_8 - 0.000000 s_1_8  + 2000.000000 r_1_7_8 > -962.445200
s_2_7 + s_2_8 + 1000 r_2_7_8 >= 2
- s_2_7 - s_2_8 - 1000 r_2_7_8 >= -1001
t_2_7 - t_2_8 - 1000.000000 u_2_7_8 - 0.000000 s_2_8  + 2000.000000 r_2_7_8 > -959.572800
s_1_8 + s_1_2 + 1000 r_1_2_8 >= 2
- s_1_8 - s_1_2 - 1000 r_1_2_8 >= -1001
t_1_8 - t_1_2 + 1000.000000 u_1_2_8 - 0.470127 s_1_2  + 0.470127 s_1_7  + 2000.000000 r_1_2_8 > 19.022211
s_2_8 + s_2_2 + 1000 r_2_2_8 >= 2
- s_2_8 - s_2_2 - 1000 r_2_2_8 >= -1001
t_2_8 - t_2_2 + 1000.000000 u_2_2_8 - 0.460406 s_2_2  + 0.460406 s_2_7  + 2000.000000 r_2_2_8 > 38.406439
s_1_8 + s_1_4 + 1000 r_1_4_8 >= 2
- s_1_8 - s_1_4 - 1000 r_1_4_8 >= -1001
t_1_8 - t_1_4 + 1000.000000 u_1_4_8 - 0.470127 s_1_4  + 0.470127 s_1_7  + 2000.000000 r_1_4_8 > 4.151900
s_2_8 + s_2_4 + 1000 r_2_4_8 >= 2
- s_2_8 - s_2_4 - 1000 r_2_4_8 >= -1001
t_2_8 - t_2_4 + 1000.000000 u_2_4_8 - 0.460406 s_2_4  + 0.460406 s_2_7  + 2000.000000 r_2_4_8 > 7.979822
s_1_8 + s_1_7 + 1000 r_1_7_8 >= 2
- s_1_8 - s_1_7 - 1000 r_1_7_8 >= -1001
t_1_8 - t_1_7 + 1000.000000 u_1_7_8 - 0.000000 s_1_7  + 2000.000000 r_1_7_8 > 27.900000
s_2_8 + s_2_7 + 1000 r_2_7_8 >= 2
- s_2_8 - s_2_7 - 1000 r_2_7_8 >= -1001
t_2_8 - t_2_7 + 1000.000000 u_2_7_8 - 0.000000 s_2_7  + 2000.000000 r_2_7_8 > 31.866944
Binary
s_1_1
s_2_1
s_1_2
s_2_2
s_1_3
s_2_3
s_1_4
s_2_4
s_1_5
s_2_5
s_1_6
s_2_6
s_1_7
s_2_7
s_1_8
s_2_8
u_1_1_2
r_1_1_2
u_2_1_2
r_2_1_2
u_1_1_3
r_1_1_3
u_2_1_3
r_2_1_3
u_1_1_4
r_1_1_4
u_2_1_4
r_2_1_4
u_1_1_5
r_1_1_5
u_2_1_5
r_2_1_5
u_1_2_3
r_1_2_3
u_2_2_3
r_2_2_3
u_1_2_4
r_1_2_4
u_2_2_4
r_2_2_4
u_1_2_5
r_1_2_5
u_2_2_5
r_2_2_5
u_1_2_8
r_1_2_8
u_2_2_8
r_2_2_8
u_1_3_4
r_1_3_4
u_2_3_4
r_2_3_4
u_1_3_5
r_1_3_5
u_2_3_5
r_2_3_5
u_1_4_5
r_1_4_5
u_2_4_5
r_2_4_5
u_1_4_8
r_1_4_8
u_2_4_8
r_2_4_8
u_1_5_7
r_1_5_7
u_2_5_7
r_2_5_7
u_1_7_8
r_1_7_8
u_2_7_8
r_2_7_8

End
